language ESSENCE' 1.0
$ minion Nodes: 1
$ minion TotalTime: 0.000394
$ Savile Row TotalTime: 0.15
letting pain_tuple4_tuple2 be [3;int(1)]
letting pain_tuple1 be [2;int(1)]
letting pain_tuple2 be [[4, 8, 9;int(1..3)];int(1)]
letting pain_tuple4_tuple1 be [7;int(1)]
letting pain_tuple3_tuple1 be [5;int(1)]
